p wcnf 139 166 167 
1 55 -108 0 
1 -53 108 0 
1 -28 99 0 
1 1 21 0 
1 -82 -42 0 
1 -96 53 0 
1 -71 -70 0 
1 -60 76 0 
1 64 -66 0 
1 -16 -68 0 
1 127 92 0 
1 -13 -98 0 
1 -54 123 0 
1 56 -92 0 
1 43 -131 0 
1 105 27 0 
1 -121 -68 0 
1 -115 128 0 
1 58 102 0 
1 76 -36 0 
1 -48 -81 0 
1 -70 -123 0 
1 106 75 0 
1 118 35 0 
1 27 -23 0 
1 39 -41 0 
1 -128 50 0 
1 -90 -118 0 
1 -22 33 0 
1 4 17 0 
1 -99 -43 0 
1 41 22 0 
1 57 -100 0 
1 106 -84 0 
1 114 -49 0 
1 88 -128 0 
1 58 78 0 
1 94 -117 0 
1 14 -33 0 
1 -76 38 0 
1 -12 51 0 
1 -41 5 0 
1 71 -80 0 
1 27 -51 0 
1 124 137 0 
1 -135 -84 0 
1 33 50 0 
1 -126 -30 0 
1 -135 63 0 
1 29 -95 0 
1 105 -24 0 
1 -9 5 0 
1 139 -99 0 
1 -21 -58 0 
1 -33 119 0 
1 2 76 0 
1 -61 74 0 
1 12 -107 0 
1 116 128 0 
1 34 100 0 
1 128 96 0 
1 -6 -26 0 
1 -118 -97 0 
1 -63 5 0 
1 45 -85 0 
1 21 53 0 
1 36 -66 0 
1 30 43 0 
1 97 -34 0 
1 -3 69 0 
1 -60 75 0 
1 -96 -108 0 
1 97 74 0 
1 -94 139 0 
1 18 -15 0 
1 137 31 0 
1 17 1 0 
1 122 131 0 
1 52 -82 0 
1 -85 -51 0 
1 -100 78 0 
1 -97 94 0 
1 -14 -130 0 
1 33 -3 0 
1 -111 75 0 
1 -112 -21 0 
1 -111 59 0 
1 61 -126 0 
1 27 -30 0 
1 -44 -65 0 
1 -70 34 0 
1 21 65 0 
1 73 108 0 
1 -139 56 0 
1 63 109 0 
1 17 -117 0 
1 54 -46 0 
1 86 -69 0 
1 -17 -132 0 
1 -49 -83 0 
1 -43 91 0 
1 114 -139 0 
1 96 112 0 
1 46 -95 0 
1 -119 65 0 
1 -63 -1 0 
1 108 -134 0 
1 62 -16 0 
1 20 59 0 
1 131 25 0 
1 54 -123 0 
1 101 63 0 
1 61 -97 0 
1 17 47 0 
1 94 79 0 
1 -86 43 0 
1 -16 127 0 
1 32 34 0 
1 28 98 0 
1 70 130 0 
1 -77 72 0 
1 49 -89 0 
1 -84 -81 0 
1 -122 97 0 
1 -137 -47 0 
1 73 101 0 
1 -29 -52 0 
1 40 48 0 
1 -101 76 0 
1 -71 110 0 
1 -117 -134 0 
1 -50 130 0 
1 19 -73 0 
1 -139 -59 0 
1 -40 -6 0 
1 103 123 0 
1 61 -45 0 
1 88 -30 0 
1 16 -95 0 
1 39 2 0 
1 60 -98 0 
1 -3 50 0 
1 120 113 0 
1 -90 96 0 
1 -115 43 0 
1 60 121 0 
1 -98 12 0 
1 -11 110 0 
1 -39 113 0 
1 -87 81 0 
1 100 11 0 
1 69 -55 0 
1 123 -91 0 
1 -63 -84 0 
1 -88 93 0 
1 17 -128 0 
1 -22 -131 0 
1 -86 101 0 
1 114 92 0 
1 -23 -20 0 
1 -14 56 0 
1 18 64 0 
1 -4 -27 0 
1 -134 -46 0 
1 -80 -57 0 
1 24 -86 0 
